49
8
0 8 9 10 13 14 15 16 20 25 26 27 28 32 33 34 35 36 37 38 39 42 43 44 45 47 48
1 11 13 14 15 16 17 18 19 20 21 25 26 27 30 31 33 35 37 38 39 43 45 47
2 8 9 10 13 14 16 17 21 22 25 26 29 31 33 34 35 36 38 39 42 48
3 9 10 13 14 19 22 27 30 38 42 47
4 9 12 16 17 20 25 26 27 28 30 31 32 34 35 38 40 48
5 14 17 21 23 28 32 33 34 36 41 44 45 47
6 8 9 16 17 21 22 23 25 26 29 30 42 46 48
7 13 19 22 24
